(set-info :original "03-prusti/prusti-3-pass-paper_examples-points-compress.bc")
(set-info :authors "SeaHorn v.0.1.0-rc3")
(declare-rel verifier.error (Bool Bool Bool ))
(declare-rel main@entry (Int ))
(declare-rel main@entry.split ())
(declare-var main@%_0_0 (Array Int Int) )
(declare-var main@%_1_0 (Array Int Int) )
(declare-var main@%_2_0 (Array Int Int) )
(declare-var main@%_3_0 (Array Int Int) )
(declare-var main@%_4_0 Int )
(declare-var main@%_5_0 Int )
(declare-var main@%malloc14.i_0 Int )
(declare-var main@%_6_0 Int )
(declare-var main@%_7_0 Int )
(declare-var main@%_8_0 Int )
(declare-var main@%_9_0 Int )
(declare-var main@%_10_0 Int )
(declare-var @nd_0 Int )
(declare-var main@%.pmcpy.elt.i_0 Int )
(declare-var main@%.pmcpy.unpack.i_0 Int )
(declare-var main@%_11_0 Int )
(declare-var main@%.pmcpy2.elt.i_0 Int )
(declare-var main@%.pmcpy2.unpack.i_0 Int )
(declare-var main@%.pmcpy2.elt10.i_0 Int )
(declare-var main@%.pmcpy2.unpack11.i_0 Int )
(declare-var main@%.repack.i_0 Int )
(declare-var main@%_12_0 (Array Int Int) )
(declare-var main@%.repack13.i_0 Int )
(declare-var main@%_13_0 (Array Int Int) )
(declare-var main@%_14_0 Int )
(declare-var main@%_15_0 Int )
(declare-var main@%_16_0 Int )
(declare-var main@%_17_0 Int )
(declare-var main@%_18_0 Int )
(declare-var main@%_19_0 Int )
(declare-var main@%_20_0 Bool )
(declare-var main@entry_0 Bool )
(declare-var main@entry.split_0 Bool )
(rule (verifier.error false false false))
(rule (verifier.error false true true))
(rule (verifier.error true false true))
(rule (verifier.error true true true))
(rule (main@entry @nd_0))
(rule (let ((a!1 (= main@%.pmcpy2.elt.i_0 (+ (+ main@%_5_0 (* 0 8)) 0)))
      (a!2 (= main@%.pmcpy2.elt10.i_0 (+ (+ main@%_5_0 (* 0 8)) 4)))
      (a!3 (= main@%.repack.i_0 (+ (+ main@%malloc14.i_0 (* 0 8)) 0)))
      (a!4 (= main@%.repack13.i_0 (+ (+ main@%malloc14.i_0 (* 0 8)) 4))))
(let ((a!5 (and (main@entry @nd_0)
                true
                (> main@%_4_0 0)
                (> main@%_5_0 0)
                (> main@%malloc14.i_0 0)
                (= main@%_6_0 main@%_4_0)
                (= main@%_7_0 main@%_5_0)
                (= main@%_8_0 main@%malloc14.i_0)
                (= main@%_9_0 main@%malloc14.i_0)
                (= main@%_10_0 @nd_0)
                (= main@%.pmcpy.elt.i_0 (+ main@%_4_0 (* 0 8) 0))
                (or (<= main@%_4_0 0) (> main@%.pmcpy.elt.i_0 0))
                (= main@%.pmcpy.unpack.i_0
                   (select main@%_3_0 main@%.pmcpy.elt.i_0))
                (= main@%_11_0 @nd_0)
                a!1
                (or (<= main@%_5_0 0) (> main@%.pmcpy2.elt.i_0 0))
                (= main@%.pmcpy2.unpack.i_0
                   (select main@%_1_0 main@%.pmcpy2.elt.i_0))
                a!2
                (or (<= main@%_5_0 0) (> main@%.pmcpy2.elt10.i_0 0))
                (> main@%_5_0 0)
                (= main@%.pmcpy2.unpack11.i_0
                   (select main@%_1_0 main@%.pmcpy2.elt10.i_0))
                a!3
                (or (<= main@%malloc14.i_0 0) (> main@%.repack.i_0 0))
                (= main@%_12_0
                   (store main@%_0_0 main@%.repack.i_0 main@%.pmcpy2.unpack.i_0))
                a!4
                (or (<= main@%malloc14.i_0 0) (> main@%.repack13.i_0 0))
                (> main@%malloc14.i_0 0)
                (= main@%_13_0
                   (store main@%_12_0
                          main@%.repack13.i_0
                          main@%.pmcpy2.unpack11.i_0))
                (= main@%_14_0 (+ main@%_9_0 1))
                (= main@%_15_0 (+ main@%_14_0 main@%.pmcpy.unpack.i_0))
                (= main@%_16_0 (- main@%_15_0 main@%.pmcpy2.unpack.i_0))
                (= main@%_17_0 main@%_16_0)
                (= main@%_18_0 (+ main@%_17_0 (* 0 8) 0))
                (or (<= main@%_17_0 0) (> main@%_18_0 0))
                (= main@%_19_0 (select main@%_2_0 main@%_18_0))
                (= main@%_20_0 (< main@%.pmcpy.unpack.i_0 main@%_19_0))
                (not main@%_20_0)
                (=> main@entry.split_0 (and main@entry.split_0 main@entry_0))
                main@entry.split_0)))
  (=> a!5 main@entry.split))))
(query main@entry.split)

